data;


param d:= 100;
param r:=5;
param p:=0.860000;
param M:=1000;
param U:=
         1         1        2.817412e+00
         2         1       -4.563139e-01
         3         1        7.655240e-01
         4         1        2.026109e+00
         5         1       -3.097956e-01
         6         1        6.936469e-01
         7         1       -1.919021e-01
         8         1        4.871444e-01
         9         1       -3.441002e-01
        10         1        7.073401e-01
        11         1        1.787931e+00
        12         1       -1.430159e+00
        13         1       -8.990843e-01
        14         1       -2.959749e-01
        15         1        1.183353e+00
        16         1        7.493687e-01
        17         1       -9.354931e-01
        18         1        6.184375e-01
        19         1        2.306134e+00
        20         1       -2.841153e-01
        21         1       -1.537940e+00
        22         1       -1.821556e-01
        23         1       -1.096816e+00
        24         1       -9.549911e-01
        25         1       -9.536627e-01
        26         1        9.230570e-01
        27         1       -5.644559e-01
        28         1        1.622433e+00
        29         1        1.257846e+00
        30         1        1.847212e+00
        31         1        4.624403e-01
        32         1       -1.227805e-01
        33         1        5.777963e-01
        34         1        3.757527e-01
        35         1       -5.323522e-01
        36         1       -9.558534e-01
        37         1        1.498358e-01
        38         1       -7.571967e-01
        39         1       -2.059854e-01
        40         1       -2.514835e+00
        41         1        7.291732e-01
        42         1        6.182406e-01
        43         1        4.284052e-01
        44         1        5.000436e-01
        45         1        7.160913e-01
        46         1       -1.494708e+00
        47         1       -4.586701e-01
        48         1       -6.162367e-01
        49         1        6.816133e-01
        50         1        1.601314e+00
        51         1       -5.854631e-01
        52         1       -5.903741e-01
        53         1       -1.112171e+00
        54         1       -1.956014e+00
        55         1       -7.918961e-01
        56         1       -1.022993e+00
        57         1       -5.404529e-01
        58         1       -1.133301e+00
        59         1        6.259571e-01
        60         1        1.042919e+00
        61         1       -2.465696e-01
        62         1        4.312737e-01
        63         1        4.429870e-03
        64         1       -1.383166e+00
        65         1        4.488538e-01
        66         1       -7.261459e-01
        67         1        1.920833e+00
        68         1        1.431861e+00
        69         1       -3.914407e-01
        70         1       -4.033386e-01
        71         1       -5.327894e-01
        72         1        7.238456e-02
        73         1        5.166651e-01
        74         1        1.458995e+00
        75         1        9.173967e-01
        76         1        1.820519e+00
        77         1        9.755337e-01
        78         1        7.685138e-02
        79         1       -1.364509e+00
        80         1        8.420632e-01
        81         1       -2.032483e+00
        82         1       -1.205708e+00
        83         1       -1.094684e+00
        84         1       -4.423299e-01
        85         1        9.559127e-01
        86         1       -2.232534e-02
        87         1        1.156403e+00
        88         1       -3.882330e-01
        89         1        1.923318e-01
        90         1        3.805380e-01
        91         1        1.243278e+00
        92         1       -1.471407e+00
        93         1       -5.044517e-01
        94         1       -7.223806e-01
        95         1       -9.706537e-01
        96         1       -9.137647e-01
        97         1        4.026944e-01
        98         1        2.640977e-01
        99         1        1.346645e+00
       100         1       -1.789970e+00
         1         2        4.178659e-01
         2         2       -5.017753e-01
         3         2        1.696857e+00
         4         2       -9.414713e-03
         5         2       -5.027799e-01
         6         2       -2.142323e+00
         7         2        1.020295e+00
         8         2        4.162443e-02
         9         2       -3.066514e-02
        10         2       -9.591129e-01
        11         2        1.335472e+00
        12         2       -8.857482e-01
        13         2        3.475525e-01
        14         2       -5.806514e-01
        15         2        1.595720e-01
        16         2       -3.094068e-01
        17         2        4.712154e-01
        18         2       -6.724991e-01
        19         2        1.068765e+00
        20         2       -6.853841e-01
        21         2       -8.765424e-01
        22         2       -3.903538e-01
        23         2       -1.246441e+00
        24         2        3.139959e-01
        25         2       -6.657695e-01
        26         2       -3.659797e-01
        27         2        2.338055e-02
        28         2        7.469280e-01
        29         2       -2.948263e-01
        30         2       -8.303619e-01
        31         2        1.207401e+00
        32         2       -7.987198e-02
        33         2       -2.937157e-01
        34         2       -1.312593e+00
        35         2        1.206540e+00
        36         2       -1.162850e+00
        37         2        1.226901e+00
        38         2        9.218693e-01
        39         2       -3.146815e-01
        40         2       -1.284853e+00
        41         2       -1.135965e+00
        42         2       -1.615010e+00
        43         2        2.534824e+00
        44         2        6.118333e-01
        45         2       -5.966910e-01
        46         2       -3.994139e-01
        47         2       -3.836208e-01
        48         2        2.145194e-01
        49         2        5.035848e-01
        50         2        3.062778e-01
        51         2       -4.723614e-01
        52         2       -1.173921e-01
        53         2       -1.515857e+00
        54         2       -1.029060e+00
        55         2        1.476395e-01
        56         2        9.872973e-01
        57         2       -1.862339e+00
        58         2       -6.861912e-01
        59         2       -1.689314e-01
        60         2        2.910126e-01
        61         2        9.385390e-01
        62         2       -8.677034e-02
        63         2        3.641721e-01
        64         2       -1.077522e+00
        65         2       -3.009082e-01
        66         2       -4.094489e-01
        67         2       -1.452907e+00
        68         2       -3.037640e-01
        69         2       -1.370988e+00
        70         2        4.500276e-01
        71         2       -4.953806e-01
        72         2        1.225739e+00
        73         2       -4.428584e-01
        74         2       -2.099324e+00
        75         2       -7.921609e-01
        76         2       -2.029224e+00
        77         2        1.008735e+00
        78         2       -9.350019e-01
        79         2       -9.487869e-01
        80         2        7.671800e-01
        81         2       -6.741546e-01
        82         2       -5.214817e-01
        83         2       -4.178296e-01
        84         2        4.705496e-01
        85         2       -4.368983e-01
        86         2        1.685864e+00
        87         2       -1.087264e+00
        88         2       -1.393173e-01
        89         2        3.690381e-01
        90         2       -5.515239e-01
        91         2        7.333552e-01
        92         2        1.822004e+00
        93         2       -1.194033e+00
        94         2        1.207885e+00
        95         2        1.179028e+00
        96         2        8.405170e-01
        97         2       -8.225083e-01
        98         2        1.895991e+00
        99         2        1.817746e+00
       100         2        1.274032e+00
         1         3       -4.493137e-02
         2         3       -9.337910e-01
         3         3        5.847216e-01
         4         3       -1.753760e+00
         5         3       -1.092373e+00
         6         3       -2.138992e+00
         7         3        2.625335e-01
         8         3        6.409576e-01
         9         3       -4.806571e-01
        10         3        7.904758e-01
        11         3        2.368286e-01
        12         3        3.299397e-02
        13         3        4.600322e-01
        14         3       -1.950490e-01
        15         3        9.893573e-01
        16         3       -6.197988e-01
        17         3        2.616918e-01
        18         3        9.349418e-01
        19         3        1.003061e-01
        20         3        2.323128e+00
        21         3        8.483629e-01
        22         3       -1.142196e+00
        23         3        1.876458e+00
        24         3        5.518883e-02
        25         3        6.207718e-01
        26         3       -1.440583e+00
        27         3       -1.450836e+00
        28         3       -9.306800e-01
        29         3       -6.656998e-02
        30         3        3.937916e-02
        31         3        1.582688e+00
        32         3       -5.646858e-01
        33         3       -1.148824e+00
        34         3       -1.481565e-01
        35         3       -1.907710e-01
        36         3        4.036458e-01
        37         3       -3.123785e-01
        38         3       -7.350878e-01
        39         3       -5.706332e-01
        40         3        8.097173e-02
        41         3       -1.504398e+00
        42         3       -4.148106e-01
        43         3        3.601547e-01
        44         3        2.652562e-01
        45         3        6.054942e-01
        46         3       -1.120087e+00
        47         3       -2.960060e-01
        48         3       -6.692233e-01
        49         3        2.556745e-01
        50         3        6.398512e-01
        51         3        9.828083e-01
        52         3       -4.983371e-02
        53         3       -6.489641e-01
        54         3        4.102635e-02
        55         3        9.702744e-01
        56         3       -1.225747e+00
        57         3        1.152343e+00
        58         3        9.380921e-03
        59         3       -7.152324e-01
        60         3       -8.784618e-01
        61         3        5.456612e-01
        62         3        6.983597e-01
        63         3        5.166461e-01
        64         3        1.885012e+00
        65         3        2.531945e+00
        66         3        4.287099e-01
        67         3        7.002523e-01
        68         3       -1.792730e+00
        69         3        9.313429e-01
        70         3       -1.527078e+00
        71         3        1.161188e+00
        72         3        5.681885e-01
        73         3       -2.110592e-01
        74         3       -2.218213e+00
        75         3        1.661392e+00
        76         3       -5.758005e-01
        77         3       -6.511140e-01
        78         3       -3.397406e-01
        79         3        1.542769e+00
        80         3        1.907521e+00
        81         3       -2.521469e+00
        82         3        3.022909e-01
        83         3       -4.267439e-01
        84         3       -9.788085e-01
        85         3       -1.054156e+00
        86         3        1.283149e+00
        87         3       -9.896156e-01
        88         3        3.329182e-02
        89         3        1.343233e+00
        90         3       -1.806415e-01
        91         3       -9.392876e-01
        92         3        1.331269e-02
        93         3       -4.188156e-01
        94         3       -5.265987e-01
        95         3        9.610548e-01
        96         3        1.122442e+00
        97         3        9.336750e-01
        98         3       -3.242390e-03
        99         3        7.444419e-01
       100         3        2.804823e+00
         1         4       -5.718302e-02
         2         4        5.135274e-01
         3         4        7.830526e-01
         4         4       -6.507498e-01
         5         4       -5.092323e-01
         6         4       -1.123042e+00
         7         4       -2.708195e-02
         8         4       -1.283547e+00
         9         4        1.340280e+00
        10         4       -1.720199e-01
        11         4       -1.049752e+00
        12         4        9.951553e-01
        13         4       -8.571286e-01
        14         4        3.301867e+00
        15         4       -1.465053e+00
        16         4        6.641101e-01
        17         4       -1.845990e-01
        18         4        3.093402e+00
        19         4       -1.431296e+00
        20         4       -1.151193e-01
        21         4        9.147617e-01
        22         4        7.672307e-01
        23         4       -7.795186e-02
        24         4        8.495723e-01
        25         4        9.405614e-01
        26         4        1.070110e+00
        27         4       -1.763151e+00
        28         4       -1.331968e+00
        29         4       -2.123283e-01
        30         4       -5.299557e-02
        31         4       -6.299580e-01
        32         4        1.288229e+00
        33         4       -9.630440e-01
        34         4        2.700466e-01
        35         4       -1.020060e-01
        36         4        1.040393e-01
        37         4        1.439639e+00
        38         4       -3.079893e-01
        39         4       -1.120642e+00
        40         4       -8.264000e-01
        41         4       -3.781752e-01
        42         4        2.015171e+00
        43         4        1.147716e+00
        44         4        8.113622e-01
        45         4        8.535207e-01
        46         4       -1.031771e+00
        47         4       -1.003399e-01
        48         4        1.287625e+00
        49         4       -2.699223e-01
        50         4        1.051786e+00
        51         4       -1.335628e+00
        52         4        3.570235e-01
        53         4       -3.056684e-01
        54         4       -3.732990e-01
        55         4        1.268087e+00
        56         4       -5.589245e-02
        57         4        9.201200e-01
        58         4        9.127956e-01
        59         4       -5.205556e-01
        60         4       -1.501455e+00
        61         4       -1.096223e+00
        62         4        6.390108e-01
        63         4       -4.601080e-01
        64         4        1.269945e+00
        65         4        1.271063e-01
        66         4        8.425085e-01
        67         4       -5.056550e-01
        68         4        2.701700e+00
        69         4       -6.590593e-01
        70         4        9.860779e-02
        71         4       -2.199119e+00
        72         4       -1.911118e+00
        73         4        9.978242e-01
        74         4        9.378194e-01
        75         4       -9.806144e-01
        76         4       -4.939523e-01
        77         4       -1.096890e+00
        78         4        1.097944e+00
        79         4       -5.279297e-01
        80         4        1.139550e-01
        81         4       -1.066058e+00
        82         4       -1.101290e+00
        83         4       -2.439929e-01
        84         4        1.130209e+00
        85         4        4.383365e-01
        86         4        3.888557e-01
        87         4        8.240513e-01
        88         4        7.613066e-02
        89         4       -4.614524e-01
        90         4       -1.601951e+00
        91         4        8.859522e-02
        92         4        8.089473e-02
        93         4        1.634184e-01
        94         4        8.442284e-01
        95         4        9.081737e-01
        96         4        1.649927e+00
        97         4        1.292253e+00
        98         4       -1.063530e+00
        99         4        5.729604e-01
       100         4        2.454112e+00
         1         5       -2.212845e-01
         2         5        3.600801e-01
         3         5       -5.594607e-01
         4         5        2.114539e-02
         5         5        8.038882e-01
         6         5        5.320659e-01
         7         5        2.089463e-02
         8         5       -4.691627e-01
         9         5        1.109410e+00
        10         5        2.124279e-01
        11         5       -8.357727e-01
        12         5       -9.955618e-01
        13         5       -4.307895e-01
        14         5       -1.754852e+00
        15         5        1.046560e+00
        16         5       -2.150299e-02
        17         5        4.334063e-01
        18         5        8.521227e-01
        19         5        1.073816e-02
        20         5       -2.039835e-01
        21         5        2.751556e+00
        22         5       -2.899925e-01
        23         5        2.795956e-01
        24         5       -8.031683e-01
        25         5       -6.496132e-01
        26         5       -1.196509e+00
        27         5        8.350454e-01
        28         5        1.037770e+00
        29         5        7.417715e-01
        30         5       -9.911906e-01
        31         5       -8.206329e-01
        32         5       -4.934160e-01
        33         5       -6.472794e-01
        34         5       -6.213192e-01
        35         5       -6.471627e-01
        36         5        1.221294e+00
        37         5        5.300094e-01
        38         5        7.855789e-01
        39         5        2.566203e-02
        40         5        7.968637e-01
        41         5        9.081560e-01
        42         5        1.532681e+00
        43         5        8.164634e-01
        44         5       -1.042441e+00
        45         5        1.659172e+00
        46         5        1.238556e+00
        47         5        1.032377e+00
        48         5       -1.083542e+00
        49         5       -4.822763e-01
        50         5       -1.117778e+00
        51         5       -3.415226e-01
        52         5        2.749525e-02
        53         5        2.530757e-01
        54         5       -2.018845e+00
        55         5        1.376131e-01
        56         5       -3.244691e-01
        57         5        1.416731e+00
        58         5       -1.480022e+00
        59         5       -1.709675e+00
        60         5        6.425501e-01
        61         5        1.485729e-01
        62         5       -2.189286e+00
        63         5       -2.561141e-01
        64         5        4.217268e-02
        65         5       -1.584785e+00
        66         5       -2.213559e-01
        67         5       -3.691233e-01
        68         5       -1.190954e+00
        69         5       -8.505361e-01
        70         5        8.407528e-01
        71         5       -2.803213e-01
        72         5        8.080055e-01
        73         5        5.207570e-02
        74         5       -5.468324e-01
        75         5        7.106707e-01
        76         5       -7.806591e-01
        77         5       -5.560505e-02
        78         5        1.921995e+00
        79         5       -2.520157e+00
        80         5       -7.861817e-01
        81         5        2.336410e-01
        82         5        6.895726e-01
        83         5        7.865995e-01
        84         5       -6.621365e-01
        85         5        1.653496e-01
        86         5       -3.943775e-01
        87         5       -2.537535e-01
        88         5        3.395516e-01
        89         5       -5.011708e-01
        90         5       -9.239240e-01
        91         5        4.017562e-01
        92         5       -1.988201e-01
        93         5       -1.312555e+00
        94         5       -5.977991e-01
        95         5       -6.611124e-01
        96         5        2.845516e+00
        97         5       -1.269694e-01
        98         5       -4.171425e-02
        99         5        6.141513e-02
       100         5       -7.555525e-01
;

param theta:=
    1       -1.927164e+00
    2        2.273452e-01
    3       -1.413022e+00
    4        1.055731e+00
    5       -1.681189e-01
;
param X_true:=
    1       -5.294296e+00
    2        2.566393e+00
    3       -9.949944e-01
    4       -2.119254e+00
    5        1.353509e+00
    6       -7.645528e-02
    7        1.987163e-01
    8       -3.111236e+00
    9        2.563807e+00
   10       -2.915490e+00
   11       -4.444414e+00
   12        3.726149e+00
   13        3.291888e-01
   14        4.494898e+00
   15       -5.364870e+00
   16        6.602704e-02
   17        1.272450e+00
   18        4.567281e-01
   19       -5.855924e+00
   20       -2.978155e+00
   21        2.068983e+00
   22        2.734990e+00
   23       -9.504064e-01
   24        2.865775e+00
   25        1.911533e+00
   26        1.504392e+00
   27        1.141378e+00
   28       -3.222481e+00
   29       -2.745906e+00
   30       -3.693615e+00
   31       -3.380178e+00
   32        2.459349e+00
   33       -4.648651e-01
   34       -4.236487e-01
   35        1.570904e+00
   36        9.118726e-01
   37        1.862337e+00
   38        2.250296e+00
   39       -5.566645e-02
   40        3.433558e+00
   41       -8.967423e-02
   42        8.973261e-01
   43        3.161822e-01
   44       -1.675477e-01
   45       -1.749108e+00
   46        3.074956e+00
   47        9.354873e-01
   48        3.723536e+00
   49       -1.764253e+00
   50       -2.622165e+00
   51       -1.720482e+00
   52        1.553774e+00
   53        2.350464e+00
   54        3.422941e+00
   55        1.504283e+00
   56        3.923483e+00
   57       -2.769186e-01
   58        3.227285e+00
   59       -4.962265e-01
   60       -2.395588e+00
   61       -1.264773e+00
   62       -7.949761e-01
   63       -1.098469e+00
   64        1.090685e+00
   65       -4.110497e+00
   66        1.627216e+00
   67       -5.493323e+00
   68        2.757166e+00
   69       -1.426123e+00
   70        3.000163e+00
   71       -3.001184e+00
   72       -2.817161e+00
   73        2.465297e-01
   74        9.274078e-01
   75       -5.450393e+00
   76       -3.546392e+00
   77       -1.879316e+00
   78        9.553967e-01
   79        1.002982e-01
   80       -3.891271e+00
   81        6.161805e+00
   82        4.993028e-01
   83        2.227810e+00
   84        3.647012e+00
   85       -1.701442e-02
   86       -9.099918e-01
   87       -1.647773e-01
   88        6.927621e-01
   89       -2.587688e+00
   90       -2.139395e+00
   91       -8.760525e-01
   92        3.349885e+00
   93        1.685691e+00
   94        3.402628e+00
   95        1.850596e+00
   96        1.629520e+00
   97       -8.967381e-01
   98       -1.189122e+00
   99       -2.639296e+00
  100        2.493839e+00
;
param X:=
    1       -5.294296e+00
    2       -5.543103e-01
    3       -6.196686e-02
    4       -1.106903e+00
    5        1.270760e+00
    6       -5.243501e-02
    7        1.141057e+00
    8       -9.339822e-04
    9        8.486420e-01
   10       -5.897109e-01
   11       -7.747118e-01
   12        1.476260e+00
   13        1.020606e+00
   14        2.144786e-02
   15        1.333748e+00
   16        6.602704e-02
   17        1.546298e+00
   18        4.177154e-01
   19       -1.683693e+00
   20        1.558922e-01
   21        2.068983e+00
   22       -8.770120e-01
   23        1.708478e-01
   24        8.057661e-01
   25        1.150989e+00
   26       -6.614294e-01
   27        1.515463e-01
   28        6.172095e-01
   29        1.825353e+00
   30       -1.858136e+00
   31       -3.380178e+00
   32       -1.013610e+00
   33       -3.256286e-01
   34       -3.406248e-01
   35       -1.135340e+00
   36        8.278821e-01
   37        1.862337e+00
   38       -1.361070e+00
   39        6.638507e-01
   40        2.772173e-01
   41       -8.967423e-02
   42        1.285864e+00
   43       -1.262503e+00
   44        2.563127e-01
   45       -6.794273e-01
   46       -2.387342e+00
   47        1.704834e-01
   48        3.723536e+00
   49       -1.192583e+00
   50       -6.805296e-01
   51       -1.479507e-01
   52        5.363777e-01
   53        2.350464e+00
   54        3.422941e+00
   55        1.941102e-01
   56       -1.322386e+00
   57       -7.572542e-01
   58        4.294438e-01
   59       -2.119064e+00
   60        6.124185e-01
   61        8.056052e-01
   62       -1.920883e-01
   63        4.953059e-01
   64       -5.324994e-02
   65        9.973648e-01
   66       -1.405165e+00
   67        1.620141e+00
   68        2.109415e+00
   69       -7.290779e-02
   70       -1.522492e+00
   71        8.264872e-01
   72       -2.817161e+00
   73        5.963489e-01
   74        1.237465e+00
   75       -2.943442e-02
   76        2.977351e+00
   77       -8.537563e-01
   78       -1.855683e-01
   79       -4.170499e-01
   80       -3.891271e+00
   81        6.161805e+00
   82       -2.482336e+00
   83       -3.694065e-02
   84       -2.449720e-01
   85       -1.701442e-02
   86        5.276081e-02
   87       -9.668599e-01
   88        1.031446e+00
   89       -2.587688e+00
   90        1.298336e+00
   91        4.943680e-01
   92       -1.208407e-02
   93       -3.185558e-03
   94        7.132020e-01
   95       -2.189982e-01
   96        1.646455e+00
   97        5.853260e-01
   98        2.204725e+00
   99       -2.199928e-01
  100        7.173115e-01
;
param outliervec:=
    1    0
    2    1
    3    1
    4    1
    5    1
    6    1
    7    1
    8    1
    9    1
   10    1
   11    1
   12    1
   13    1
   14    1
   15    1
   16    0
   17    1
   18    1
   19    1
   20    1
   21    0
   22    1
   23    1
   24    1
   25    1
   26    1
   27    1
   28    1
   29    1
   30    1
   31    0
   32    1
   33    1
   34    1
   35    1
   36    1
   37    0
   38    1
   39    1
   40    1
   41    0
   42    1
   43    1
   44    1
   45    1
   46    1
   47    1
   48    0
   49    1
   50    1
   51    1
   52    1
   53    0
   54    0
   55    1
   56    1
   57    1
   58    1
   59    1
   60    1
   61    1
   62    1
   63    1
   64    1
   65    1
   66    1
   67    1
   68    1
   69    1
   70    1
   71    1
   72    0
   73    1
   74    1
   75    1
   76    1
   77    1
   78    1
   79    1
   80    0
   81    0
   82    1
   83    1
   84    1
   85    0
   86    1
   87    1
   88    1
   89    0
   90    1
   91    1
   92    1
   93    1
   94    1
   95    1
   96    1
   97    1
   98    1
   99    1
  100    1
;